7346514731279058376509,10,1,2,010,9,1,2,08,11,1,2,03,11,1,2,07,1,1,2,01,6,1,2,07,9,1,2,013,9,1,2,015,13,1,2,014,7,1,2,011,9,1,2,012,8,1,2,09,3,1,2,07,1,1,2,02,2,1,2,010,6,1,2,012,5,1,2,09,15,1,2,08,14,1,2,07,7,1,2,012,12,1,2,01,13,1,2,014,14,1,2,06,6,1,2,015,7,1,2,02,7,1,2,06,11,1,2,014,2,1,2,05,2,1,2,015,14,1,2,012,8,1,2,015,15,1,2,02,6,1,2,07,10,1,2,014,11,1,2,07,15,1,2,06,9,1,2,07,13,1,2,09,12,1,2,02,4,1,2,02,6,1,2,04,1,1,2,05,14,1,2,07,12,1,2,02,4,1,2,015,7,1,2,02,7,1,2,09,7,1,2,02,14,1,2,01,5,1,2,0